p cnf 447 479
c 48 select(1,10)
c 49 nots(1,10)
c 50 select(1,3)
c 51 nots(1,3)
c 52 select(1,14)
c 53 nots(1,14)
c 54 reach(14)
c 55 reach(3)
c 56 reach(10)
c 57 select(10,1)
c 58 nots(10,1)
c 59 select(3,1)
c 60 nots(3,1)
c 61 select(14,1)
c 62 nots(14,1)
c 63 select(14,9)
c 64 nots(14,9)
c 65 select(10,31)
c 66 nots(10,31)
c 67 select(3,21)
c 68 nots(3,21)
c 69 reach(21)
c 70 reach(31)
c 71 reach(9)
c 72 select(31,10)
c 73 nots(31,10)
c 74 select(21,3)
c 75 nots(21,3)
c 76 select(21,17)
c 77 nots(21,17)
c 78 select(9,27)
c 79 nots(9,27)
c 80 select(9,14)
c 81 nots(9,14)
c 82 select(31,37)
c 83 nots(31,37)
c 84 reach(37)
c 85 reach(27)
c 86 reach(17)
c 87 select(27,9)
c 88 nots(27,9)
c 89 select(37,15)
c 90 nots(37,15)
c 91 select(37,31)
c 92 nots(37,31)
c 93 select(17,41)
c 94 nots(17,41)
c 95 select(17,21)
c 96 nots(17,21)
c 97 reach(41)
c 98 reach(15)
c 99 select(41,11)
c 100 nots(41,11)
c 101 select(41,17)
c 102 nots(41,17)
c 103 select(41,18)
c 104 nots(41,18)
c 105 select(15,37)
c 106 nots(15,37)
c 107 reach(18)
c 108 reach(11)
c 109 select(11,8)
c 110 nots(11,8)
c 111 select(18,11)
c 112 nots(18,11)
c 113 select(18,16)
c 114 nots(18,16)
c 115 select(11,41)
c 116 nots(11,41)
c 117 select(11,18)
c 118 nots(11,18)
c 119 select(18,41)
c 120 nots(18,41)
c 121 reach(16)
c 122 reach(8)
c 123 select(8,11)
c 124 nots(8,11)
c 125 select(8,13)
c 126 nots(8,13)
c 127 select(16,18)
c 128 nots(16,18)
c 129 select(16,44)
c 130 nots(16,44)
c 131 reach(44)
c 132 reach(13)
c 133 select(13,8)
c 134 nots(13,8)
c 135 select(13,12)
c 136 nots(13,12)
c 137 select(44,16)
c 138 nots(44,16)
c 139 select(44,25)
c 140 nots(44,25)
c 141 select(13,29)
c 142 nots(13,29)
c 143 reach(29)
c 144 reach(25)
c 145 reach(12)
c 146 select(29,13)
c 147 nots(29,13)
c 148 select(12,24)
c 149 nots(12,24)
c 150 select(12,13)
c 151 nots(12,13)
c 152 select(25,44)
c 153 nots(25,44)
c 154 select(25,38)
c 155 nots(25,38)
c 156 select(29,40)
c 157 nots(29,40)
c 158 reach(40)
c 159 reach(38)
c 160 reach(24)
c 161 select(24,12)
c 162 nots(24,12)
c 163 select(38,7)
c 164 nots(38,7)
c 165 select(38,25)
c 166 nots(38,25)
c 167 select(40,28)
c 168 nots(40,28)
c 169 select(40,29)
c 170 nots(40,29)
c 171 select(24,43)
c 172 nots(24,43)
c 173 reach(43)
c 174 reach(28)
c 175 reach(7)
c 176 select(43,20)
c 177 nots(43,20)
c 178 select(43,24)
c 179 nots(43,24)
c 180 select(7,34)
c 181 nots(7,34)
c 182 select(7,38)
c 183 nots(7,38)
c 184 select(28,40)
c 185 nots(28,40)
c 186 select(28,30)
c 187 nots(28,30)
c 188 reach(30)
c 189 reach(34)
c 190 reach(20)
c 191 select(34,4)
c 192 nots(34,4)
c 193 select(34,7)
c 194 nots(34,7)
c 195 select(30,2)
c 196 nots(30,2)
c 197 select(30,28)
c 198 nots(30,28)
c 199 select(20,26)
c 200 nots(20,26)
c 201 select(20,43)
c 202 nots(20,43)
c 203 reach(26)
c 204 reach(2)
c 205 reach(4)
c 206 select(26,6)
c 207 nots(26,6)
c 208 select(26,20)
c 209 nots(26,20)
c 210 select(4,34)
c 211 nots(4,34)
c 212 select(4,19)
c 213 nots(4,19)
c 214 select(2,35)
c 215 nots(2,35)
c 216 select(2,30)
c 217 nots(2,30)
c 218 reach(35)
c 219 reach(19)
c 220 reach(6)
c 221 select(19,4)
c 222 nots(19,4)
c 223 select(35,2)
c 224 nots(35,2)
c 225 select(35,5)
c 226 nots(35,5)
c 227 select(6,26)
c 228 nots(6,26)
c 229 select(19,33)
c 230 nots(19,33)
c 231 reach(33)
c 232 reach(5)
c 233 select(33,19)
c 234 nots(33,19)
c 235 select(33,23)
c 236 nots(33,23)
c 237 select(5,35)
c 238 nots(5,35)
c 239 select(5,36)
c 240 nots(5,36)
c 241 reach(36)
c 242 reach(23)
c 243 select(36,5)
c 244 nots(36,5)
c 245 select(23,33)
c 246 nots(23,33)
c 247 select(23,42)
c 248 nots(23,42)
c 249 reach(42)
c 250 select(42,23)
c 251 nots(42,23)
c 252 select(42,32)
c 253 nots(42,32)
c 254 reach(32)
c 255 select(32,22)
c 256 nots(32,22)
c 257 select(32,42)
c 258 nots(32,42)
c 259 select(32,39)
c 260 nots(32,39)
c 261 reach(39)
c 262 reach(22)
c 263 select(39,22)
c 264 nots(39,22)
c 265 select(39,32)
c 266 nots(39,32)
c 267 select(22,32)
c 268 nots(22,32)
c 269 select(22,39)
c 270 nots(22,39)
c 316 edge(1,10)
c 317 edge(1,3)
c 318 edge(1,14)
c 319 edge(2,35)
c 320 edge(2,30)
c 321 edge(3,21)
c 322 edge(4,34)
c 323 edge(4,19)
c 324 edge(5,35)
c 325 edge(5,36)
c 326 edge(6,26)
c 327 edge(7,34)
c 328 edge(7,38)
c 329 edge(8,11)
c 330 edge(8,13)
c 331 edge(9,27)
c 332 edge(9,14)
c 333 edge(10,31)
c 334 edge(11,41)
c 335 edge(11,18)
c 336 edge(12,24)
c 337 edge(12,13)
c 338 edge(13,29)
c 339 edge(15,37)
c 340 edge(16,18)
c 341 edge(16,44)
c 342 edge(17,41)
c 343 edge(17,21)
c 344 edge(18,41)
c 345 edge(19,33)
c 346 edge(20,26)
c 347 edge(20,43)
c 348 edge(22,32)
c 349 edge(22,39)
c 350 edge(23,33)
c 351 edge(23,42)
c 352 edge(24,43)
c 353 edge(25,44)
c 354 edge(25,38)
c 355 edge(28,40)
c 356 edge(28,30)
c 357 edge(29,40)
c 358 edge(31,37)
c 359 edge(32,42)
c 360 edge(32,39)
c 361 reach(1)
c 362 goal(44)
131 0
-288 0
316 0
317 0
318 0
319 0
320 0
321 0
322 0
323 0
324 0
325 0
326 0
327 0
328 0
329 0
330 0
331 0
332 0
333 0
334 0
335 0
336 0
337 0
338 0
339 0
340 0
341 0
342 0
343 0
344 0
345 0
346 0
347 0
348 0
349 0
350 0
351 0
352 0
353 0
354 0
355 0
356 0
357 0
358 0
359 0
360 0
361 0
362 0
-1 0
-2 0
-3 0
-4 0
-5 0
-6 0
-7 0
-8 0
-9 0
-10 0
-11 0
-12 0
-13 0
-14 0
-15 0
-16 0
-17 0
-18 0
-19 0
-20 0
-21 0
-22 0
-23 0
-24 0
-25 0
-26 0
-27 0
-28 0
-29 0
-30 0
-31 0
-32 0
-33 0
-34 0
-35 0
-36 0
-37 0
-38 0
-39 0
-40 0
-41 0
-42 0
-43 0
-44 0
-45 0
-46 0
-47 0
-271 0
-272 0
-273 0
-274 0
-275 0
-276 0
-277 0
-278 0
-279 0
-280 0
-281 0
-282 0
-283 0
-284 0
-285 0
-286 0
-287 0
-446 0
-137 0
-394 0
138 0
-447 0
-139 0
-393 0
140 0
-289 0
-290 0
-291 0
-292 0
-293 0
-294 0
-295 0
-296 0
-297 0
-298 0
-299 0
-300 0
-301 0
-302 0
-303 0
-304 0
-305 0
-306 0
-307 0
-308 0
-309 0
-310 0
-311 0
-312 0
-313 0
-314 0
-315 0
-152 0
-399 0
388 0
129 0
121 0
-130 0
364 0
-127 0
385 0
50 0
55 0
-389 0
128 0
113 0
-51 0
-48 0
-52 0
107 0
-114 0
-111 0
49 0
-365 0
53 0
-363 0
-119 0
120 0
-386 0
112 0
-382 0
-57 0
366 0
67 0
69 0
-68 0
-59 0
60 0
-61 0
-64 0
-66 0
371 0
76 0
86 0
-77 0
-74 0
-372 0
75 0
-88 0
375 0
93 0
97 0
-94 0
-95 0
-374 0
96 0
-101 0
-380 0
102 0
-106 0
-115 0
-384 0
-155 0
-228 0
-244 0
-153 0
-116 0
-62 0
-58 0
-376 0
-373 0
-370 0
-369 0
-368 0
-367 0
-104 0
-100 0
-65 0
-63 0
-383 0
-379 0
-103 0
-445 0
-444 0
-443 0
-442 0
-441 0
-439 0
-437 0
-434 0
-432 0
-431 0
-429 0
-426 0
-425 0
-423 0
-421 0
-420 0
-417 0
-415 0
-413 0
-412 0
-410 0
-408 0
-407 0
-404 0
-402 0
-400 0
-390 0
-387 0
-381 0
-99 0
-270 0
-268 0
-266 0
-264 0
-260 0
-258 0
-256 0
-263 0
-265 0
-253 0
-269 0
-251 0
-248 0
-247 0
-246 0
-73 0
-72 0
-81 0
-83 0
-80 0
-82 0
-90 0
-92 0
-89 0
-98 0
-110 0
-118 0
-124 0
-126 0
-134 0
-136 0
-142 0
-147 0
-149 0
-151 0
-150 0
-157 0
-162 0
-164 0
-166 0
-168 0
-170 0
-172 0
-177 0
-179 0
-181 0
-183 0
-185 0
-187 0
-192 0
-194 0
-196 0
-198 0
-200 0
-202 0
-207 0
-209 0
-211 0
-213 0
-215 0
-217 0
-161 0
-222 0
-224 0
-226 0
-163 0
-230 0
-234 0
-236 0
-238 0
-240 0
-165 0
-169 0
-79 0
-78 0
-85 0
-235 0
-178 0
-180 0
-184 0
-191 0
-197 0
-239 0
-241 0
-243 0
-436 0
-117 0
-109 0
-91 0
-105 0
-237 0
-87 0
-377 0
-201 0
-206 0
-220 0
-227 0
-427 0
-229 0
-208 0
-212 0
-406 0
-144 0
-154 0
-223 0
-398 0
-216 0
-148 0
-225 0
-156 0
-214 0
-123 0
-391 0
-210 0
-167 0
-171 0
-176 0
-250 0
-233 0
-182 0
-411 0
-199 0
-416 0
-221 0
-195 0
-428 0
-193 0
-186 0
-245 0
-141 0
-267 0
-125 0
-252 0
-378 0
-405 0
-419 0
-433 0
-403 0
-435 0
-397 0
-422 0
-401 0
-395 0
-440 0
-424 0
-418 0
-259 0
-396 0
-414 0
-430 0
-409 0
-70 84 56 0
173 203 -190 0
132 -133 0
132 -135 0
-392 -135 0
160 -145 135 0
108 -122 133 0
173 133 146 -160 -132 0
174 -146 -158 0
-122 133 146 -160 -132 135 -145 -173 0
188 -143 392 -174 0
160 190 -173 0
188 158 -174 0
-122 133 146 -160 -132 -190 203 0
204 -188 -146 -158 0
204 174 -188 0
145 203 -190 -160 0
-175 189 159 0
-143 392 218 -204 -174 0
190 -173 135 -145 0
188 218 -204 0
-175 159 242 -231 -205 0
175 -189 438 -242 -219 0
392 -146 0
204 -218 232 0
189 -205 -249 257 -231 0
-189 175 205 0
-189 175 231 -219 0
-205 189 242 -231 0
257 -231 -249 219 0
262 261 -438 -254 0
-438 249 0
254 -255 0
254 -257 0
262 -261 -257 0
257 242 -249 0
-261 -262 -438 -254 255 -257 0
-54 71 0
70 -56 0
-135 -133 -132 0
-392 132 0
-392 -133 0
173 145 -160 0
174 143 -158 0
392 -143 158 0
145 133 146 -132 0
-242 -219 438 205 0
189 -205 219 0
-242 231 438 0
262 261 -254 249 0
-255 -257 -254 0
254 262 -261 0
-261 262 -255 0
261 -262 255 0
-133 122 0
-392 143 0
204 -188 -158 143 0
203 122 146 -160 -132 -190 0
158 218 -204 -174 0
-242 -249 438 257 0
174 -188 232 -218 0
257 -231 -249 -205 -175 159 0
-145 -160 146 -132 -173 135 122 0
-146 232 -158 -218 -188 0
-205 -175 219 159 0
-158 143 232 -218 -188 0
231 -219 205 0
-231 219 242 0
-438 242 0
249 -257 0
